300
[30,32,35,36,37,40,41,43,44,45,46,50,51,54,55,56,58,60,61,62,63,65,66,68,69,70,71,72,73,74,79,80,81,82,83,85,87,88,89,90,91,92,93,96,97,98,99,101,104,105,106,109,110,112,113,115,116,117,118,119,120,121,123,126,127,128,129,131,132,133,134,135,136,137,138,141,143,144,148,149,150,152,153,154,155,157,158,159,160,161,163,164,165,166,168,169,170,172,174,177,180,182,183,185,186,189,192,194,195,196,197,199,200,202,203,204,205,206,207,208,209,210,211,212,215,217,218,219,220,221,222,223,224,229,232,233,235,236,239,240]
[1,1,1,1,2,2,1,2,1,2,3,2,2,1,2,2,1,2,2,1,1,1,1,2,1,1,1,2,1,1,2,1,2,1,2,2,1,1,1,1,1,1,1,2,1,1,2,2,2,2,1,1,1,1,2,1,1,1,2,2,1,1,3,2,1,1,1,1,1,1,3,2,1,1,1,1,2,2,2,2,2,1,2,1,1,1,1,1,1,1,1,1,2,1,1,1,1,1,3,1,1,2,1,1,2,1,2,1,1,2,1,1,4,2,1,1,2,1,4,3,1,1,1,1,1,2,2,1,1,1,1,1,1,1,1,2,2,2,1,1]
